solution/p_2_5.txt_600.col.lp
\ENCODING=ISO-8859-1
\Problem name: ilog.cplex

Maximize
 obj: 5 x_ijk_0_0_0 + 5 x_ijk_0_0_1 + 15 x_ijk_0_1_0 + 15 x_ijk_0_1_1
      + 13 x_ijk_1_0_0 + 13 x_ijk_1_0_1 + 7 x_ijk_1_1_0 + 7 x_ijk_1_1_1
      + 20 x_ijk_1_2_0 + 20 x_ijk_1_2_1 + 4 x_ijk_2_0_0 + 4 x_ijk_2_0_1
      + 13 x_ijk_2_1_0 + 13 x_ijk_2_1_1 + 14 x_ijk_2_2_0 + 14 x_ijk_2_2_1
      + 18 x_ijk_2_3_0 + 18 x_ijk_2_3_1 + 2 x_ijk_3_0_0 + 2 x_ijk_3_0_1
      + 8 x_ijk_3_1_0 + 8 x_ijk_3_1_1 + 12 x_ijk_3_2_0 + 12 x_ijk_3_2_1
      + 16 x_ijk_3_3_0 + 16 x_ijk_3_3_1 + x_ijk_4_0_0 + x_ijk_4_0_1
      + 7 x_ijk_4_1_0 + 7 x_ijk_4_1_1 + 20 x_ijk_4_2_0 + 20 x_ijk_4_2_1
      + 17 x_ijk_4_3_0 + 17 x_ijk_4_3_1
Subject To
 c1:  16 x_ijk_0_0_0 + 34 x_ijk_0_1_0 + 21 x_ijk_1_0_0 + 10 x_ijk_1_1_0
      + 28 x_ijk_1_2_0 + 28 x_ijk_2_0_0 + 8 x_ijk_2_1_0 + 35 x_ijk_2_2_0
      + 34 x_ijk_2_3_0 + 20 x_ijk_3_0_0 + 4 x_ijk_3_1_0 + 33 x_ijk_3_2_0
      + 39 x_ijk_3_3_0 + x_ijk_4_0_0 + 10 x_ijk_4_1_0 + 33 x_ijk_4_2_0
      + 16 x_ijk_4_3_0 - Rgc1  = -2147483647
 c2:  18 x_ijk_0_0_1 + 24 x_ijk_0_1_1 + 37 x_ijk_1_0_1 + 14 x_ijk_1_1_1
      + 31 x_ijk_1_2_1 + 10 x_ijk_2_0_1 + 24 x_ijk_2_1_1 + 22 x_ijk_2_2_1
      + 21 x_ijk_2_3_1 + 16 x_ijk_3_0_1 + 32 x_ijk_3_1_1 + 39 x_ijk_3_2_1
      + 10 x_ijk_3_3_1 + 19 x_ijk_4_0_1 + 31 x_ijk_4_1_1 + 29 x_ijk_4_2_1
      + 37 x_ijk_4_3_1 - Rgc2  = -2147483647
 c3:  x_ijk_0_0_0 + x_ijk_0_1_0 - Rgc3  = -2147483647
 c4:  x_ijk_0_0_1 + x_ijk_0_1_1 - Rgc4  = -2147483647
 c5:  x_ijk_1_0_0 + x_ijk_1_1_0 + x_ijk_1_2_0 - Rgc5  = -2147483647
 c6:  x_ijk_1_0_1 + x_ijk_1_1_1 + x_ijk_1_2_1 - Rgc6  = -2147483647
 c7:  x_ijk_2_0_0 + x_ijk_2_1_0 + x_ijk_2_2_0 + x_ijk_2_3_0 - Rgc7
       = -2147483647
 c8:  x_ijk_2_0_1 + x_ijk_2_1_1 + x_ijk_2_2_1 + x_ijk_2_3_1 - Rgc8
       = -2147483647
 c9:  x_ijk_3_0_0 + x_ijk_3_1_0 + x_ijk_3_2_0 + x_ijk_3_3_0 - Rgc9
       = -2147483647
 c10: x_ijk_3_0_1 + x_ijk_3_1_1 + x_ijk_3_2_1 + x_ijk_3_3_1 - Rgc10
       = -2147483647
 c11: x_ijk_4_0_0 + x_ijk_4_1_0 + x_ijk_4_2_0 + x_ijk_4_3_0 - Rgc11
       = -2147483647
 c12: x_ijk_4_0_1 + x_ijk_4_1_1 + x_ijk_4_2_1 + x_ijk_4_3_1 - Rgc12
       = -2147483647
Bounds
 0 <= x_ijk_0_0_0 <= 1
 0 <= x_ijk_0_0_1 <= 1
 0 <= x_ijk_0_1_0 <= 1
 0 <= x_ijk_0_1_1 <= 1
 0 <= x_ijk_1_0_0 <= 1
 0 <= x_ijk_1_0_1 <= 1
 0 <= x_ijk_1_1_0 <= 1
 0 <= x_ijk_1_1_1 <= 1
 0 <= x_ijk_1_2_0 <= 1
 0 <= x_ijk_1_2_1 <= 1
 0 <= x_ijk_2_0_0 <= 1
 0 <= x_ijk_2_0_1 <= 1
 0 <= x_ijk_2_1_0 <= 1
 0 <= x_ijk_2_1_1 <= 1
 0 <= x_ijk_2_2_0 <= 1
 0 <= x_ijk_2_2_1 <= 1
 0 <= x_ijk_2_3_0 <= 1
 0 <= x_ijk_2_3_1 <= 1
 0 <= x_ijk_3_0_0 <= 1
 0 <= x_ijk_3_0_1 <= 1
 0 <= x_ijk_3_1_0 <= 1
 0 <= x_ijk_3_1_1 <= 1
 0 <= x_ijk_3_2_0 <= 1
 0 <= x_ijk_3_2_1 <= 1
 0 <= x_ijk_3_3_0 <= 1
 0 <= x_ijk_3_3_1 <= 1
 0 <= x_ijk_4_0_0 <= 1
 0 <= x_ijk_4_0_1 <= 1
 0 <= x_ijk_4_1_0 <= 1
 0 <= x_ijk_4_1_1 <= 1
 0 <= x_ijk_4_2_0 <= 1
 0 <= x_ijk_4_2_1 <= 1
 0 <= x_ijk_4_3_0 <= 1
 0 <= x_ijk_4_3_1 <= 1
 0 <= Rgc1 <= 2147483722
 0 <= Rgc2 <= 2147483745
 0 <= Rgc3 <= 2147483648
 0 <= Rgc4 <= 2147483648
 0 <= Rgc5 <= 2147483648
 0 <= Rgc6 <= 2147483648
 0 <= Rgc7 <= 2147483648
 0 <= Rgc8 <= 2147483648
 0 <= Rgc9 <= 2147483648
 0 <= Rgc10 <= 2147483648
 0 <= Rgc11 <= 2147483648
 0 <= Rgc12 <= 2147483648
Generals
 x_ijk_0_0_0  x_ijk_0_0_1  x_ijk_0_1_0  x_ijk_0_1_1  x_ijk_1_0_0  x_ijk_1_0_1 
 x_ijk_1_1_0  x_ijk_1_1_1  x_ijk_1_2_0  x_ijk_1_2_1  x_ijk_2_0_0  x_ijk_2_0_1 
 x_ijk_2_1_0  x_ijk_2_1_1  x_ijk_2_2_0  x_ijk_2_2_1  x_ijk_2_3_0  x_ijk_2_3_1 
 x_ijk_3_0_0  x_ijk_3_0_1  x_ijk_3_1_0  x_ijk_3_1_1  x_ijk_3_2_0  x_ijk_3_2_1 
 x_ijk_3_3_0  x_ijk_3_3_1  x_ijk_4_0_0  x_ijk_4_0_1  x_ijk_4_1_0  x_ijk_4_1_1 
 x_ijk_4_2_0  x_ijk_4_2_1  x_ijk_4_3_0  x_ijk_4_3_1 
End
